NAME : tsp50_10.236.tour
COMMENT : Length = 236
COMMENT : Found by LKH [Keld Helsgaun]
TYPE : TOUR
DIMENSION : 50
TOUR_SECTION
1
20
6
46
18
48
4
49
34
47
7
22
2
8
9
25
26
15
50
16
29
24
23
33
5
11
41
3
12
39
30
32
45
19
40
21
35
36
44
37
10
42
28
38
13
17
27
14
31
43
-1
EOF
